51	3

14	14	12	

0	0	0	0	3	2	3	4	
2	5	2	2	2	5	6	
1	3	5	2	3	5	7	8	
1	5	4	3	2	5	6	
5	5	5	4	2	9	10	
4	4	1	4	2	9	10	
4	3	5	2	3	9	10	12	
2	2	4	4	2	9	11	
5	3	2	2	2	15	16	
5	3	2	4	1	13	
4	3	3	2	1	14	
1	4	1	4	1	13	
3	1	4	4	2	18	19	
4	2	2	2	1	19	
3	5	5	4	1	17	
2	1	5	4	1	17	
3	4	5	4	1	20	
3	5	3	3	2	20	21	
2	3	2	3	1	20	
4	2	4	6	1	22	
2	1	6	2	3	22	23	24	
2	5	2	2	2	25	26	
1	3	5	2	3	25	27	28	
1	5	4	3	2	25	26	
5	5	5	4	2	29	30	
4	4	1	4	2	29	30	
4	3	5	2	3	29	30	32	
2	2	4	4	2	29	31	
5	3	2	2	2	35	36	
5	3	2	4	1	33	
4	3	3	2	1	34	
1	4	1	4	1	33	
3	1	4	4	2	38	39	
4	2	2	2	1	39	
3	5	5	4	1	37	
2	1	5	4	1	37	
3	4	5	4	1	40	
3	5	3	3	2	40	41	
2	3	2	3	1	40	
4	2	4	6	1	42	
2	1	6	2	3	42	43	44	
2	5	2	2	2	45	46	
1	3	5	2	3	45	47	48	
1	5	4	3	2	45	46	
5	5	5	4	2	49	50	
4	4	1	4	2	49	50	
4	3	5	2	2	49	50	
2	2	4	4	1	49	
5	3	2	2	1	51	
5	3	2	4	1	51	
0	0	0	0	0	
